c --- [ banner ] -------------------------------------------------------------
c 
c CaDiCaL Radically Simplified CDCL SAT Solver
c Copyright (c) 2016-2019 Armin Biere, JKU Linz
c 
c Version 1.2.1 92d72896c49b30ad2d50c8e1061ca0681cd23e60
c g++ (GCC) 8.3.1 20190223 (Red Hat 8.3.1-2) -Wall -Wextra -O3 -DNDEBUG
c Mon Dec 9 12:07:29 EST 2019 Linux istanbul 5.0.16-100.fc28.x86_64 x86_64
c 
c --- [ limit ] --------------------------------------------------------------
c 
c setting time limit to 129600 seconds real time
c 
c --- [ parsing input ] ------------------------------------------------------
c 
c reading DIMACS file from './cnfs/size_4_4_4_i0418_r8.cnf'
c opening file to read './cnfs/size_4_4_4_i0418_r8.cnf'
c found 'p cnf 1140 4317' header
c parsed 4317 clauses in 0.00 seconds process time
c closing file './cnfs/size_4_4_4_i0418_r8.cnf'
c after reading 59130 bytes 0.1 MB
c 
c --- [ options ] ------------------------------------------------------------
c 
c   --profile=4                    (different from default '2')
c 
c --- [ solving ] ------------------------------------------------------------
c 
c time measured in process time since initialization
c 
c  seconds  reductions  redundant irredundant
c         MB    restarts       trail    variables
c          level   conflicts       glue      remaining
c 
c *  0.01  4  0 0   0    0    0  0% 0 4253 1076 94%
c {  0.01  4  0 0   0    0    0  0% 0 4253 1076 94%
c i  0.02  4 13 0   0  270  249 39% 7 4253 1075 94%
c -  0.02  4 13 1   1  300  278 39% 7 4107 1075 94%
c -  0.05  4 28 2  35  901  722 50% 7 4107 1075 94%
c }  0.05  4 28 2  50 1001  814 50% 7 4107 1075 94%
c [  0.05  4  0 2  50 1001  814  0% 0 4107 1075 94%
c O  0.05  4 11 2  50 1002  815 30% 5 4107 1075 94%
c -  0.07  5 23 3  50 1803 1286 62% 10 4107 1075 94%
c ]  0.12  5 24 3  51 3002 2431 61% 13 4107 1075 94%
c {  0.12  5 28 3  51 3002 2431 50% 7 4107 1075 94%
c F  0.12  5 28 3  51 3003 2432 50% 7 4107 1075 94%
c -  0.12  5 28 4  51 3003 1861 50% 7 4107 1075 94%
c s  0.15  5 29 4 109 3966 2757 54% 7 4107 1075 94%
c w  0.17  5 29 4 109 3966 2753 54% 7 4107 1071 94%
c e  0.18  5 29 4 109 3966  730 54% 7 3847 579 51%
c s  0.18  5 29 4 109 3966  717 54% 7 3847 579 51%
c -  0.20  5 29 5 146 4503 1074 47% 7 3847 579 51%
c 2  0.23  5 28 5 239 5000 1655 49% 7 3847 579 51%
c p  0.23  5 28 5 239 5000 1697 49% 7 3847 579 51%
c 
c  seconds  reductions  redundant irredundant
c         MB    restarts       trail    variables
c          level   conflicts       glue     remaining
c 
c #  0.27  5 28 5 353 6004 2631 54% 8 3847 579 51%
c -  0.28  5 27 6 371 6303 2477 52% 8 3847 579 51%
c }  0.30  5 27 6 464 7003 3147 51% 8 3847 579 51%
c [  0.30  5 24 6 464 7003 3147 119% 13 3847 579 51%
c -  0.35  5 25 7 465 8404 3566 90% 12 3847 579 51%
c I  0.41  5 25 7 466 10006 5064 79% 13 3847 579 51%
c -  0.44  5 24 8 467 10804 4271 75% 13 3847 579 51%
c -  0.54  5 23 9 469 13506 4814 69% 13 3847 579 51%
c s  0.60  5 23 9 469 14896 5979 67% 13 3847 579 51%
c v  0.62  5 23 9 469 14896 5979 67% 13 3842 579 51%
c w  0.64  5 23 9 469 14896 5976 67% 13 3842 579 51%
c t  0.64  5 23 9 469 14896 5976 67% 13 3812 579 51%
c e  0.64  5 23 9 469 14896 5400 67% 13 3832 559 49%
c s  0.65  5 23 9 469 14896 5356 67% 13 3832 559 49%
c p  0.65  5 23 9 469 15000 5647 67% 13 3832 559 49%
c ]  0.65  5 23 9 469 15003 5650 67% 13 3832 559 49%
c {  0.66  5 27 9 469 15003 5650 51% 8 3832 559 49%
c B  0.66  5 27 9 469 15007 5653 51% 8 3832 559 49%
c -  0.72  6 27 10 627 16510 5232 49% 8 3832 559 49%
c -  0.86  6 25 11 974 19810 6054 48% 8 3832 559 49%
c 
c  seconds  reductions     redundant irredundant
c         MB     restarts         trail    variables
c          level      conflicts       glue     remaining
c 
c W  0.92  6 25 11 1092 21008 7185 48% 9 3832 559 49%
c -  1.03  6 25 12 1297 23410 7329 49% 8 3832 559 49%
c -  1.22  7 24 13 1746 27311 8502 49% 9 3832 559 49%
c F  1.25  7 24 13 1803 28009 9147 50% 9 3832 559 49%
c p  1.35  7 24 13 1999 30001 11306 50% 9 3832 559 49%
c }  1.40  7 24 13 2112 31005 12217 50% 9 3832 559 49%
c [  1.40  7 23 13 2112 31005 12217 67% 13 3832 559 49%
c -  1.42  7 23 14 2112 31514 9474 66% 13 3832 559 49%
c s  1.43  7 23 14 2112 31562 9162 66% 13 3829 559 49%
c v  1.45  7 23 14 2112 31562 9162 66% 13 3809 559 49%
c w  1.47  7 23 14 2112 31562 9142 66% 13 3809 559 49%
c t  1.47  7 23 14 2112 31562 9140 66% 13 3809 559 49%
c B  1.66  7 22 14 2115 36011 13328 62% 13 3809 559 49%
c -  1.66  7 22 15 2115 36015 10431 62% 13 3809 559 49%
c -  1.86  7 22 16 2118 40815 10336 63% 13 3809 559 49%
c W  2.08  7 22 16 2119 45012 14057 64% 13 3809 559 49%
c -  2.12  7 22 17 2120 45916 10755 64% 13 3809 559 49%
c p  2.30  7 22 17 2120 50001 14666 64% 13 3809 559 49%
c -  2.36  7 22 18 2120 51316 11115 64% 13 3809 559 49%
c s  2.49  7 21 18 2120 53712 13053 64% 13 3807 559 49%
c 
c  seconds  reductions      redundant  irredundant
c         MB     restarts          trail     variables
c          level      conflicts        glue      remaining
c 
c w  2.53  7 21 18 2120 53712 13037 64% 13 3807 559 49%
c e  2.54  7 21 18 2120 53712 7260 64% 13 4279 442 39%
c s  2.55  7 21 18 2120 53712 7164 64% 13 4182 442 39%
c O  2.60  7 21 18 2121 55014 8255 65% 14 4180 442 39%
c -  2.68  7 22 19 2123 57016 7970 65% 14 4180 442 39%
c ]  2.92  7 22 19 2127 63006 13249 62% 14 4180 442 39%
c {  2.92  7 24 19 2127 63006 13249 65% 9 4180 442 39%
c -  2.92  8 24 20 2129 63018 10382 65% 9 4180 442 39%
c B  3.05  8 23 20 2392 66015 13097 62% 9 4180 442 39%
c -  3.23  9 23 21 2743 69318 11785 61% 9 4180 442 39%
c 2  3.55  9 23 21 3487 75001 17787 58% 9 4180 442 39%
c p  3.55  9 23 21 3487 75001 17803 58% 9 4180 442 39%
c -  3.60  8 23 22 3541 75918 14062 58% 9 4180 442 39%
c W  3.70  8 22 22 3696 78018 15947 57% 9 4180 442 39%
c -  3.90  8 22 23 4052 82818 14959 56% 9 4180 442 39%
c s  4.06  8 21 23 4314 86126 17547 54% 9 4167 442 39%
c v  4.08  8 21 23 4314 86126 17547 54% 9 4162 442 39%
c w  4.14  8 21 23 4314 86126 17517 54% 9 4162 442 39%
c t  4.14  8 21 23 4314 86126 17513 54% 9 4161 442 39%
c e  4.14  8 21 23 4314 86126 17438 54% 9 4189 438 38%
c 
c  seconds  reductions      redundant irredundant
c         MB     restarts          trail    variables
c          level      conflicts        glue     remaining
c 
c s  4.16  8 21 23 4314 86126 17294 54% 9 4187 438 38%
c e  4.16  8 21 23 4314 86126 15698 54% 9 4185 437 38%
c -  4.36  8 21 24 4606 90018 15298 54% 9 4185 437 38%
c #  4.41  8 21 24 4637 91020 16246 54% 9 4185 437 38%
c -  4.74  9 20 25 5175 97518 16505 53% 9 4185 437 38%
c p  5.09  9 19 25 5695 105001 23345 51% 9 4185 437 38%
c B  5.09  9 19 25 5695 105024 23367 51% 9 4185 437 38%
c -  5.12  9 19 26 5722 105324 17903 51% 9 4185 437 38%
c -  5.56  9 19 27 6576 113424 19261 50% 9 4185 437 38%
c W  5.97  9 19 27 7351 120028 25158 50% 9 4185 437 38%
c -  6.07 10 19 28 7398 121825 20591 50% 9 4185 437 38%
c s  6.24 10 19 28 7549 125245 23295 50% 9 4185 437 38%
c v  6.27 10 19 28 7549 125245 23295 50% 9 4173 437 38%
c w  6.33 10 19 28 7549 125245 23268 50% 9 4173 437 38%
c t  6.33 10 19 28 7549 125245 23268 50% 9 4172 437 38%
c }  6.45 10 19 28 7805 127006 24898 50% 9 4172 437 38%
c [  6.45 10 22 28 7805 127006 24898 62% 14 4172 437 38%
c -  6.61 10 21 29 7805 130526 21808 59% 14 4172 437 38%
c B  6.84 10 20 29 7810 136029 26567 57% 13 4172 437 38%
c -  7.05 10 20 30 7812 139526 22043 60% 13 4172 437 38%
c 
c  seconds  reductions       redundant  irredundant
c         MB     restarts           trail     variables
c          level      conflicts         glue      remaining
c 
c d  7.08 10 20 30 7812 140002 22480 60% 13 4169 436 38%
c p  7.09 10 20 30 7812 140002 22875 60% 13 4169 436 38%
c -  7.64 10 20 31 7813 148826 21210 64% 13 4169 436 38%
c W  7.92 10 20 31 7814 153032 24648 65% 13 4169 436 38%
c -  8.24 10 20 32 7814 158426 20832 65% 14 4169 436 38%
c -  8.86 10 19 33 7815 168327 21519 66% 13 4169 436 38%
c s  9.02 10 19 33 7817 170817 23483 66% 13 4169 436 38%
c w  9.15 10 19 33 7817 170817 23472 66% 13 4169 436 38%
c t  9.15 10 19 33 7817 170817 23472 66% 13 4156 436 38%
c e  9.16 10 19 33 7817 170817 7356 66% 13 6090 302 26%
c s  9.18 10 19 33 7817 170817 7308 66% 13 6002 302 26%
c I  9.19  9 19 33 7817 171033 7500 63% 13 6002 302 26%
c -  9.47 10 19 34 7821 178527 12662 61% 13 6002 302 26%
c -  9.88 11 20 35 7828 189028 15817 59% 14 6002 302 26%
c B  9.92 11 20 35 7828 190034 16601 60% 14 6002 302 26%
c - 10.36 11 19 36 7829 199828 18248 63% 14 6002 302 26%
c W 10.85 11 19 36 7836 210036 26286 61% 13 6002 302 26%
c - 10.90 11 19 37 7836 210931 18371 61% 13 6002 302 26%
c - 11.44 13 19 38 7843 222331 19898 62% 13 6002 302 26%
c O 11.85 13 19 38 7844 231038 26862 63% 13 6002 302 26%
c 
c  seconds  reductions       redundant  irredundant
c         MB     restarts           trail     variables
c          level      conflicts         glue      remaining
c 
c - 11.97 13 19 39 7844 234034 20733 62% 13 6002 302 26%
c - 12.49 13 19 40 7845 246036 21305 61% 14 6002 302 26%
c B 12.81 13 19 40 7846 253040 26731 60% 14 6002 302 26%
c ] 12.90 13 19 40 7846 255008 28279 61% 14 6002 302 26%
c { 12.90 13 19 40 7846 255008 28279 73% 9 6002 302 26%
c - 13.13 13 19 41 8265 258338 21925 72% 9 6002 302 26%
c - 13.83 13 18 42 9067 270938 23700 69% 9 6002 302 26%
c F 14.11 13 18 42 9449 276042 28547 68% 9 6002 302 26%
c - 14.58 13 18 43 10171 283839 26145 66% 9 6002 302 26%
c - 15.30 12 18 44 11208 297039 27461 63% 9 6002 302 26%
c B 15.40 12 17 44 11208 300043 29748 62% 9 6002 302 26%
c - 16.06 13 17 45 12153 310540 29148 61% 9 6002 302 26%
c - 17.02 13 17 46 13702 324340 31001 61% 9 6002 302 26%
c W 17.11 13 17 46 13702 325044 31643 61% 9 6002 302 26%
c - 17.92 13 17 47 14608 338440 31743 60% 9 6002 302 26%
c # 18.55 13 16 47 14864 351047 42211 60% 9 6002 302 26%
c - 18.68 13 16 48 14966 352842 32303 60% 9 6002 302 26%
c - 19.68 13 16 49 16174 367543 33438 60% 9 6002 302 26%
c B 20.25 13 16 49 16845 378048 42808 60% 9 6002 302 26%
c - 20.48 13 15 50 16846 382543 34364 60% 9 6002 302 26%
c 
c  seconds  reductions        redundant irredundant
c         MB      restarts           trail    variables
c          level       conflicts         glue     remaining
c 
c p 20.87 13 15 50 16926 390004 40793 60% 9 6002 302 26%
c s 20.93 13 15 50 16926 390004 38333 60% 9 5990 302 26%
c v 20.97 13 15 50 16926 390004 38333 60% 9 5922 302 26%
c w 21.35 13 15 50 16926 390004 38053 60% 9 5922 302 26%
c e 21.35 13 15 50 16926 390004 37434 60% 9 5937 301 26%
c s 21.42 13 15 50 16926 390004 36820 60% 9 5932 301 26%
c e 21.42 13 15 50 16926 390004 36206 60% 9 5946 300 26%
c - 21.90 12 15 51 17364 397843 32298 60% 9 5946 300 26%
c W 22.33 12 14 51 17445 406050 39246 59% 9 5946 300 26%
c - 22.96 15 15 52 18954 413444 34673 59% 9 5946 300 26%
c - 23.98 15 14 53 19577 429345 34890 59% 9 5946 300 26%
c i 24.28 15 14 53 19952 434644 39368 58% 9 5946 283 25%
c F 24.32 15 14 53 20048 435051 39759 58% 9 5946 283 25%
c - 25.23 14 15 54 21987 445549 32478 58% 9 5590 283 25%
c p 25.96 14 15 54 23298 455005 41261 58% 9 5590 283 25%
c - 26.43 16 15 55 23969 462049 35829 57% 9 5590 283 25%
c B 26.59 16 15 55 24023 465053 38429 57% 9 5590 283 25%
c s 26.91 16 15 55 24442 467565 39002 57% 9 5541 283 25%
c v 26.94 16 15 55 24442 467565 39002 57% 9 5527 283 25%
c w 27.21 16 15 55 24442 467565 38984 57% 9 5527 283 25%
c 
c  seconds  reductions        redundant irredundant
c         MB      restarts           trail    variables
c          level       conflicts         glue     remaining
c 
c t 27.21 16 15 55 24442 467565 38982 57% 9 5527 283 25%
c e 27.22 16 15 55 24442 467565 37247 57% 9 5531 282 25%
c s 27.30 16 15 55 24442 467565 36953 57% 9 5531 282 25%
c - 28.02 16 15 56 24999 478849 36280 57% 9 5531 282 25%
c - 29.35 19 15 57 26714 495949 38595 57% 9 5531 282 25%
c W 29.44 19 15 57 26741 496054 38696 57% 9 5531 282 25%
c } 30.38 19 14 57 27689 511009 50864 57% 9 5531 282 25%
c [ 30.38 19 19 57 27689 511009 50864 61% 14 5531 282 25%
c - 30.53 16 19 58 27689 513351 40065 61% 14 5531 282 25%
c W 31.47 16 19 58 27689 528057 52154 60% 14 5531 282 25%
c - 31.67 19 19 59 27689 531051 40328 60% 14 5531 282 25%
c - 32.91 19 18 60 27696 549052 37496 62% 13 5531 282 25%
c s 33.31 19 18 60 27698 553441 39800 62% 13 5531 282 25%
c w 33.61 19 18 60 27698 553441 39730 62% 13 5531 282 25%
c t 33.61 19 18 60 27698 553441 39728 62% 13 5531 282 25%
c I 34.13 19 18 60 27703 561058 45890 63% 13 5531 282 25%
c - 34.52 19 18 61 27704 567352 38065 63% 13 5531 282 25%
c - 35.74 17 17 62 27712 585952 37827 63% 13 5531 282 25%
c B 36.32 17 17 62 27718 595059 44423 62% 13 5531 282 25%
c d 36.63 17 17 62 27719 600007 48710 62% 13 5522 281 25%
c 
c  seconds  reductions        redundant  irredundant
c         MB      restarts           trail     variables
c          level       conflicts         glue      remaining
c 
c 2 36.64 17 17 62 27719 600007 49032 62% 13 5521 281 25%
c p 36.64 17 17 62 27719 600007 49032 62% 13 5521 281 25%
c - 36.91 17 17 63 27719 604856 38032 62% 13 5521 281 25%
c - 37.87 17 18 64 27722 624056 38446 60% 13 5521 281 25%
c W 38.38 17 18 64 27726 630060 42994 60% 13 5521 281 25%
c - 39.24 19 18 65 27734 643556 38036 60% 14 5521 281 25%
c s 39.60 19 18 65 27735 647906 41190 60% 14 5407 281 25%
c v 39.63 19 18 65 27735 647906 41190 60% 14 5234 281 25%
c w 39.91 19 18 65 27735 647906 41175 60% 14 5234 281 25%
c - 41.12 19 18 66 27741 663357 38937 60% 14 5234 281 25%
c O 41.31 19 18 66 27742 666061 41176 60% 14 5234 281 25%
c - 42.38 17 18 67 27750 683458 40583 60% 13 5234 281 25%
c B 43.80 17 17 67 27751 703062 56053 61% 13 5234 281 25%
c - 43.87 20 17 68 27751 703858 41079 61% 13 5234 281 25%
c - 45.20 17 16 69 27752 724558 41642 60% 13 5234 281 25%
c W 46.41 17 16 69 27753 741063 54544 60% 12 5234 281 25%
c - 46.74 20 16 70 27753 745559 43240 59% 12 5234 281 25%
c - 48.30 20 15 71 27753 766861 44744 59% 12 5234 281 25%
c I 49.30 20 14 71 27753 780065 54469 59% 11 5234 281 25%
c - 49.86 17 15 72 27753 788462 47252 59% 12 5234 281 25%
c 
c  seconds  reductions        redundant  irredundant
c         MB      restarts           trail     variables
c          level       conflicts         glue      remaining
c 
c - 51.31 20 15 73 27758 810364 46772 59% 12 5234 281 25%
c B 52.05 20 15 73 27763 820068 54291 59% 12 5234 281 25%
c - 52.98 20 16 74 27768 832564 44683 60% 12 5234 281 25%
c - 54.68 20 17 75 27779 855064 45645 60% 13 5234 281 25%
c W 55.22 20 17 75 27782 861069 50368 60% 13 5234 281 25%
c - 56.31 17 17 76 27784 877865 46036 61% 13 5234 281 25%
c - 57.90 19 17 77 27793 900965 46582 62% 13 5234 281 25%
c O 58.06 19 17 77 27794 903070 48260 62% 13 5234 281 25%
c - 59.50 19 17 78 27802 924366 47422 60% 13 5234 281 25%
c B 61.03 19 17 78 27814 946071 63585 59% 13 5234 281 25%
c - 61.21 20 17 79 27814 948066 48708 59% 13 5234 281 25%
c - 62.98 23 17 80 27816 972066 49660 60% 13 5234 281 25%
c W 64.64 23 17 80 27816 990074 63674 60% 13 5234 281 25%
c - 65.11 23 17 81 27816 996366 50666 60% 13 5234 281 25%
c - 67.01 23 18 82 27828 1020968 50392 59% 14 5234 281 25%
c ] 67.15 23 18 82 27829 1023010 51935 59% 14 5234 281 25%
c { 67.15 23 14 82 27829 1023010 51935 57% 9 5234 281 25%
c # 68.55 23 15 82 29567 1035076 62243 56% 9 5234 281 25%
c - 69.15 20 14 83 29887 1045869 51482 55% 9 5234 281 25%
c - 71.63 23 14 84 32639 1071070 57190 55% 10 5234 281 25%
c 
c  seconds  reductions         redundant irredundant
c         MB      restarts            trail    variables
c          level        conflicts         glue     remaining
c 
c B 72.30 23 14 84 32843 1081078 65539 56% 9 5234 281 25%
c - 73.98 27 14 85 35066 1096571 60467 56% 10 5234 281 25%
c - 76.14 23 14 86 36723 1122373 62463 56% 9 5234 281 25%
c W 76.96 23 14 86 37634 1128080 67562 56% 10 5234 281 25%
c - 79.25 27 15 87 40403 1148474 65332 56% 10 5234 281 25%
c p 80.01 27 15 87 41121 1155016 71531 56% 10 5234 281 25%
c - 82.22 27 15 88 42852 1174874 65265 56% 10 5234 281 25%
c s 82.44 18 15 88 42852 1174874 63253 56% 10 5233 281 25%
c w 85.30 18 15 88 42852 1174874 63034 56% 10 5233 281 25%
c e 85.30 18 15 88 42852 1174874 61923 56% 10 5261 279 24%
c s 85.52 18 15 88 42852 1174874 61038 56% 10 5255 279 24%
c e 85.52 18 15 88 42852 1174874 59842 56% 10 5268 278 24%
c F 85.65 18 15 88 42899 1176081 60933 56% 10 5268 278 24%
c - 88.25 21 14 89 44282 1201574 65801 58% 10 5268 278 24%
c B 90.51 21 14 89 46645 1225083 86118 57% 10 5268 278 24%
c - 90.75 20 14 90 46726 1228577 67394 56% 10 5268 278 24%
c - 93.74 25 14 91 49071 1255877 66818 56% 10 5268 278 24%
c p 94.59 25 14 91 49578 1265017 74662 56% 10 5268 278 24%
c W 95.52 25 14 91 49729 1275085 83147 56% 10 5268 278 24%
c - 96.86 30 14 92 51199 1283477 68543 57% 10 5268 278 24%
c 
c  seconds  reductions         redundant  irredundant
c         MB      restarts            trail     variables
c          level        conflicts         glue      remaining
c 
c s 97.29 30 14 92 51291 1285222 68263 57% 10 5268 278 24%
c v 97.32 30 14 92 51291 1285222 68263 57% 10 5249 278 24%
c w 98.10 30 14 92 51291 1285222 68208 57% 10 5249 278 24%
c - 100.87 30 14 93 52793 1311378 68992 58% 10 5249 278 24%
c # 102.09 30 13 93 53084 1326087 79782 57% 9 5249 278 24%
c - 103.63 30 13 94 53702 1339578 66698 57% 9 5249 278 24%
c - 106.61 30 13 95 55934 1368079 70724 57% 9 5249 278 24%
c B 107.53 30 13 95 56522 1378088 78960 58% 9 5249 278 24%
c p 107.71 30 13 95 56581 1380017 81004 58% 9 5249 278 24%
c - 109.91 30 13 96 57705 1396882 71693 58% 9 5249 278 24%
c s 110.85 30 13 96 57984 1403915 74016 58% 9 5246 278 24%
c w 111.41 30 13 96 57984 1403915 73907 58% 9 5246 278 24%
c t 111.41 30 13 96 57984 1403915 73905 58% 9 5246 278 24%
c - 113.61 30 13 97 59082 1425984 73425 58% 9 5246 278 24%
c W 114.54 30 13 97 59745 1431089 77863 58% 9 5246 278 24%
c - 117.29 30 12 98 60371 1455386 71917 57% 9 5246 278 24%
c i 118.42 30 12 98 60408 1466433 79278 57% 9 5246 277 24%
c - 121.30 20 12 99 64168 1485086 57318 57% 9 5158 277 24%
c F 121.30 20 12 99 64169 1485091 57323 57% 9 5158 277 24%
c 3 123.27 20 13 99 66310 1500019 71211 57% 9 5158 277 24%
c 
c  seconds   reductions         redundant irredundant
c          MB      restarts            trail    variables
c           level        conflicts         glue     remaining
c 
c 2 123.28 20 13 99 66310 1500019 71309 57% 9 5158 277 24%
c p 123.28 20 13 99 66310 1500019 71320 57% 9 5158 277 24%
c - 125.29 25 13 100 67097 1515087 67433 57% 9 5158 277 24%
c s 127.54 25 12 100 68426 1531058 76955 57% 9 5056 277 24%
c v 127.57 25 12 100 68426 1531058 76955 57% 9 5054 277 24%
c w 128.21 25 12 100 68426 1531058 76834 57% 9 5054 277 24%
c t 128.21 25 12 100 68426 1531058 76820 57% 9 5054 277 24%
c e 128.22 25 12 100 68426 1531058 48068 57% 9 5278 261 23%
c s 128.39 25 12 100 68426 1531058 47752 57% 9 5278 261 23%
c B 129.10 25 12 100 68966 1540092 55013 56% 9 5278 261 23%
c - 129.59 25 12 101 69439 1545388 51178 56% 9 5278 261 23%
c - 132.77 26 12 102 71523 1575988 62683 56% 9 5278 261 23%
c W 135.12 26 12 102 72847 1596095 78406 56% 9 5278 261 23%
c - 136.43 26 12 103 73577 1606888 67806 56% 9 5278 261 23%
c p 138.24 26 12 103 73816 1625019 81238 57% 9 5278 260 23%
c i 138.94 26 11 103 73854 1631673 85850 57% 9 5278 259 23%
c - 139.66 26 12 104 74624 1638089 36121 57% 9 5166 259 23%
c # 140.89 26 12 104 75995 1653096 48275 56% 9 5166 259 23%
c - 142.43 26 12 105 77349 1669589 54971 56% 9 5166 259 23%
c s 142.57 26 12 105 77361 1669872 54261 56% 9 5097 259 23%
c 
c  seconds    reductions         redundant irredundant
c          MB       restarts            trail    variables
c           level         conflicts         glue     remaining
c 
c v 142.61 26 12 105 77361 1669872 54261 56% 9 5095 259 23%
c w 143.09 26 12 105 77361 1669872 54252 56% 9 5095 259 23%
c i 144.96 26 11 105 77453 1691318 68919 55% 8 5095 258 23%
c - 146.21 26 12 106 79414 1701389 37752 55% 9 5055 258 23%
c B 147.03 26 12 106 80548 1711101 46350 55% 9 5055 258 23%
c - 149.51 26 12 107 83360 1733489 58763 55% 9 5055 258 23%
c p 151.72 26 12 107 84895 1755019 77915 56% 9 4959 242 21%
c - 153.49 31 13 108 86306 1765889 67661 55% 9 4959 242 21%
c W 154.34 21 13 108 87064 1770103 71593 55% 9 4959 242 21%
c - 157.73 23 13 109 89092 1798590 72224 55% 9 4959 242 21%
c s 159.85 23 13 109 90447 1816006 77516 54% 9 4877 242 21%
c v 159.89 23 13 109 90447 1816006 77516 54% 9 4862 242 21%
c w 161.00 23 13 109 90447 1816006 77383 54% 9 4862 242 21%
c t 161.00 23 13 109 90447 1816006 77381 54% 9 4862 242 21%
c F 162.85 23 13 109 91932 1830104 89617 54% 9 4862 242 21%
c - 163.22 24 13 110 92267 1831590 74546 54% 9 4862 242 21%
c - 167.59 25 13 111 95028 1864892 76114 54% 9 4862 242 21%
c p 169.97 25 12 111 95872 1890020 97074 53% 9 4862 242 21%
c B 170.10 25 12 111 95872 1891105 97935 53% 9 4862 242 21%
c - 171.19 25 13 112 97087 1898493 80242 54% 9 4862 242 21%
c 
c  seconds    reductions         redundant irredundant
c          MB       restarts            trail    variables
c           level         conflicts         glue     remaining
c 
c - 174.95 25 12 113 98603 1932393 82066 53% 9 4862 242 21%
c W 177.88 25 12 113 100330 1953107 99019 54% 9 4862 242 21%
c i 179.08 25 12 113 100737 1961739 105835 54% 9 4862 238 21%
c - 180.26 24 12 114 101972 1966595 64329 54% 9 4691 238 21%
c s 181.40 24 12 114 103026 1971832 65723 54% 9 4560 238 21%
c v 181.44 24 12 114 103026 1971832 65723 54% 9 4559 238 21%
c w 182.08 24 12 114 103026 1971832 64891 54% 9 4559 232 20%
c t 182.08 24 12 114 103026 1971832 64882 54% 9 4559 232 20%
c e 182.09 24 12 114 103026 1971832 39992 54% 9 4505 215 19%
c s 182.22 24 12 114 103026 1971832 38860 54% 9 4447 215 19%
c - 185.06 24 12 115 105701 2001095 56069 52% 9 4402 215 19%
c # 186.44 24 12 115 106070 2016109 67580 52% 9 4402 215 19%
c d 188.64 24 12 115 108456 2030020 79842 52% 9 4401 198 17%
c 3 188.64 24 12 115 108456 2030020 80000 52% 9 4401 198 17%
c 2 188.65 24 12 115 108456 2030020 79937 52% 9 4401 198 17%
c p 188.65 24 12 115 108456 2030020 79938 52% 9 4401 198 17%
c - 189.44 24 12 116 108775 2035896 65903 54% 9 4401 198 17%
c } 190.62 24 12 116 109039 2047013 74402 55% 9 4401 198 17%
c [ 190.62 24 18 116 109039 2047013 74402 90% 14 4401 198 17%
c i 192.24 24 16 116 109043 2061860 83802 85% 13 4401 195 17%
c 
c  seconds    reductions          redundant  irredundant
c          MB       restarts             trail     variables
c           level          conflicts         glue      remaining
c 
c - 193.04 24 16 117 109048 2070996 30612 83% 12 3988 195 17%
c I 193.65 24 16 117 109054 2080111 37099 81% 12 3988 195 17%
c - 195.67 24 15 118 109057 2106398 47726 75% 12 3988 195 17%
c s 198.47 24 14 118 109072 2137351 64997 70% 11 3371 195 17%
c w 199.76 24 14 118 109072 2137351 64931 70% 11 3371 195 17%
c t 199.77 24 14 118 109072 2137351 64929 70% 11 3371 195 17%
c e 199.77 24 14 118 109072 2137351 52090 70% 11 3435 179 16%
c s 199.87 24 14 118 109072 2137351 51503 70% 11 3420 179 16%
c - 200.27 25 14 119 109072 2142098 43230 69% 11 3420 179 16%
c B 200.49 25 14 119 109075 2145112 45101 69% 11 3420 179 16%
c - 202.96 25 13 120 109088 2178098 52092 64% 11 3420 179 16%
c W 206.06 25 13 120 109089 2211114 72690 61% 10 3420 179 16%
c - 206.40 28 12 121 109089 2214399 57668 61% 10 3420 179 16%
c - 209.80 28 12 122 109090 2250999 60376 58% 10 3420 179 16%
c i 210.04 28 11 122 109090 2254133 62299 58% 9 3420 177 16%
c O 212.39 28 11 122 109090 2278116 77690 57% 9 3420 177 16%
c i 212.73 28 11 122 109090 2281495 79522 56% 9 3420 173 15%
c i 213.24 28 11 122 109090 2285774 81956 56% 9 3420 172 15%
c i 213.27 28 11 122 109090 2286059 82091 56% 9 3420 171 15%
c i 213.46 28 11 122 109090 2287603 83008 56% 9 3420 166 15%
c 
c  seconds    reductions          redundant irredundant
c          MB       restarts             trail    variables
c           level          conflicts         glue     remaining
c 
c - 213.52 28 11 123 109090 2287900 26269 56% 9 2854 166 15%
c i 213.54 28 11 123 109090 2288188 26417 56% 9 2854 159 14%
c i 213.55 28 11 123 109090 2288317 26481 56% 9 2854 138 12%
c i 213.55 28 11 123 109090 2288335 26491 56% 9 2854 127 11%
c i 213.55 28 11 123 109090 2288352 26499 56% 9 2854 114 10%
c ] 213.55 28 11 123 109090 2288356 26501 56% 9 2854  66  6%
c 0 213.55 28 11 123 109090 2288356 26501 56% 9 2854  66  6%
c 
c --- [ result ] -------------------------------------------------------------
c 
s UNSATISFIABLE
c 
c --- [ run-time profiling ] -------------------------------------------------
c 
c process time taken by individual solving procedures
c (percentage relative to process time for solving)
c 
c       199.62   93.48% search
c       159.64   74.75% propagate
c       132.60   62.10% unstable
c        64.38   30.15% stable
c        28.47   13.33% analyze
c        13.93    6.52% simplify
c        10.25    4.80% vivify
c         8.80    4.12% bump
c         7.35    3.44% minimize
c         3.16    1.48% subsume
c         3.16    1.48% decide
c         2.63    1.23% walk
c         1.37    0.64% reduce
c         1.06    0.49% collect
c         0.29    0.14% connect
c         0.16    0.08% decompose
c         0.16    0.07% elim
c         0.13    0.06% restart
c         0.10    0.05% ternary
c         0.07    0.03% probe
c         0.03    0.01% compact
c         0.02    0.01% transred
c         0.01    0.00% backward
c         0.01    0.00% deduplicate
c         0.00    0.00% parse
c         0.00    0.00% copy
c         0.00    0.00% lucky
c   =================================
c       213.55  100.00% solve
c 
c last line shows process time for solving
c (percentage relative to total process time)
c 
c --- [ statistics ] ---------------------------------------------------------
c 
c chronological:            273085        11.93 %  of conflicts
c conflicts:               2288356     10715.91    per second
c decisions:               3849735     18027.54    per second
c eliminated:                  823        72.19 %  of all variables
c fixed:                       216        18.95 %  of all variables
c learned:                 2259958        98.76 %  per conflict
c minimized:              23816062        35.38 %  learned literals
c propagations:          116958242         0.55 M  per second
c reduced:                 1431386        62.55 %  per conflict
c rephased:                     67     34154.57    interval
c restarts:                 109090        20.98    interval
c stabilizing:                   6        40.35 %  of conflicts
c substituted:                  35         3.07 %  of all variables
c subsumed:                 442497         9.56 %  of all clauses
c strengthened:              98564         2.13 %  of all clauses
c ternary:                    8399         1.72 %  of resolved
c vivified:                  18841         0.41 %  of all clauses
c walked:                       21    108969.33    interval
c weakened:                   4865         2.94    average size
c 
c seconds are measured in process time for solving
c 
c --- [ resources ] ----------------------------------------------------------
c 
c total process time since initialization:       213.55    seconds
c total real time since initialization:          214.26    seconds
c maximum resident set size of process:           31.47    MB
c 
c --- [ shutting down ] ------------------------------------------------------
c 
c exit 20
